c WARNING: for repeatability, setting FPU to use double precision
d VARIABLES            60310        
d CONSTRAINTS          258436       
c ============================[ Problem Statistics ]=============================
c |                                                                             |
c |  Number of variables:         60310                                         |
c |  Number of clauses:          258436                                         |
c |  Parse time:                   0.04 s                                       |
c |                                                                             |
c ============================[ Search Statistics ]==============================
c | Conflicts |          ORIGINAL         |          LEARNT          | Progress |
c |           |    Vars  Clauses Literals |    Limit  Clauses Lit/Cl |          |
c ===============================================================================
c |       100 |   48514   224948   547086 |    82480       99     17 | 19.559 % |
c |       250 |   48514   224948   547086 |    90729      249     34 | 19.559 % |
c |       475 |   48514   224948   547086 |    99801      474     65 | 19.559 % |
c |       812 |   48514   224903   546978 |   109782      810     72 | 19.559 % |
c |      1318 |   48514   224903   546978 |   120760     1316     88 | 19.559 % |
c ===============================================================================
c restarts              : 11
c conflicts             : 1647           (4475 /sec)
c decisions             : 9283           (0.00 % random) (25224 /sec)
c propagations          : 2208532        (6001071 /sec)
c conflict literals     : 147888         (10.46 % deleted)
d RESTARTS             11
d FAILURES             1647         
d NODES                9283         
d BACKTRACKS           9283         
d PROPAGATIONS         2208532      
d NOGOODSIZE           89.79 
d MEMORY               21.00 
d TIME                 0.368023 

s SATISFIABLE
